data/solutions/recovery/degenerate/intermediate/binding/degenerate_intermediate_instance21/28.sol
Elapsed time: 0.03
Upper bound: 33196192.0
Planning weighted value: 1.0160409919e+11
C[0]=33196192.0
C[1]=32658958.0
C[2]=31955856.0
C[3]=31937789.0
C[4]=31298246.0
C[5]=30628600.0
C[6]=25573389.0
C[7]=24243579.0
C[8]=20639262.0
C[9]=18866675.0
C[10]=0.0
C[11]=0.0
y[0]=0
y[1]=5
y[2]=2
y[3]=0
y[4]=2
y[5]=9
y[6]=0
y[7]=5
y[8]=4
y[9]=5
y[10]=2
y[11]=0
y[12]=0
y[13]=0
y[14]=1
y[15]=3
y[16]=2
y[17]=0
y[18]=1
y[19]=6
y[20]=8
y[21]=8
y[22]=7
y[23]=4
y[24]=5
y[25]=8
y[26]=3
y[27]=1
y[28]=4
y[29]=3
y[30]=1
y[31]=4
y[32]=0
y[33]=9
y[34]=2
y[35]=3
y[36]=0
y[37]=0
y[38]=8
y[39]=3
y[40]=0
y[41]=0
y[42]=4
y[43]=6
y[44]=8
y[45]=5
y[46]=9
y[47]=4
y[48]=4
y[49]=6
y[50]=9
y[51]=0
y[52]=2
y[53]=5
y[54]=7
y[55]=0
y[56]=3
y[57]=6
y[58]=2
y[59]=9
y[60]=1
y[61]=7
y[62]=7
y[63]=6
y[64]=2
