data/solutions/recovery/degenerate/intermediate/binding/degenerate_intermediate_instance21/28.log

Log started (V12.6.3.0) Sun Apr 22 12:29:01 2018

New value for default parallel thread count: 1

Problem '/tmp/tmpketda_.pyomo.lp' read.
Read time = 0.01 sec. (0.58 ticks)

Problem name         : /tmp/tmpketda_.pyomo.lp
Objective sense      : Minimize
Variables            :     794  [Nneg: 1,  Binary: 780,  General Integer: 13]
Objective nonzeros   :       1
Linear constraints   :     157  [Less: 77,  Equal: 80]
  Nonzeros           :   41016
  RHS nonzeros       :      66

Variables            : Min LB: 0.000000         Max UB: 1.000000       
Objective nonzeros   : Min   : 1.000000         Max   : 1.000000       
Linear constraints   :
  Nonzeros           : Min   : 1.000000         Max   : 8298339.       
  RHS nonzeros       : Min   : 1.000000         Max   : 1.000000       
Tried aggregator 2 times.
MIP Presolve eliminated 127 rows and 683 columns.
Aggregator did 10 substitutions.
Reduced MIP has 20 rows, 101 columns, and 210 nonzeros.
Reduced MIP has 100 binaries, 1 generals, 0 SOSs, and 0 indicators.
Presolve time = 0.00 sec. (2.82 ticks)
Found incumbent of value 6.8211359e+07 after 0.00 sec. (3.84 ticks)
Probing time = 0.00 sec. (0.09 ticks)
Tried aggregator 1 time.
Reduced MIP has 20 rows, 101 columns, and 210 nonzeros.
Reduced MIP has 100 binaries, 1 generals, 0 SOSs, and 0 indicators.
Presolve time = 0.00 sec. (0.16 ticks)
Probing time = 0.00 sec. (0.09 ticks)
Clique table members: 10.
MIP emphasis: balance optimality and feasibility.
MIP search method: dynamic search.
Parallel mode: none, using 1 thread.
Root relaxation solution time = 0.00 sec. (0.10 ticks)

        Nodes                                         Cuts/
   Node  Left     Objective  IInf  Best Integer    Best Bound    ItCnt     Gap

*     0+    0                       6.82114e+07   3.31962e+07            51.33%
      0     0   3.31962e+07     8   6.82114e+07   3.31962e+07       20   51.33%
*     0+    0                       3.31962e+07   3.31962e+07             0.00%
      0     0        cutoff         3.31962e+07   3.31962e+07       20    0.00%
Elapsed time = 0.01 sec. (4.46 ticks, tree = 0.01 MB, solutions = 2)

Root node processing (before b&c):
  Real time             =    0.01 sec. (4.49 ticks)
Sequential b&c:
  Real time             =    0.00 sec. (0.00 ticks)
                          ------------
Total (root+branch&cut) =    0.01 sec. (4.49 ticks)

Solution pool: 2 solutions saved.

MIP - Integer optimal solution:  Objective =  3.3196192000e+07
Solution time =    0.01 sec.  Iterations = 20  Nodes = 0
Deterministic time = 4.49 ticks  (803.46 ticks/sec)


Incumbent solution written to file '/tmp/tmpED_hMF.cplex.sol'.
